\ENCODING=ISO-8859-1
\Problem name: ilog.cplex

Maximize
 obj: 1035 x(0)#0 + 760 x(1)#1 + 1051 x(2)#2 + 473 x(3)#3 + 414 x(4)#4
      + 773 x(5)#5 + 571 x(6)#6 + 578 x(7)#7 + 690 x(8)#8 + 552 x(9)#9
      + 916 x(10)#10 + 1000 x(11)#11 + 538 x(12)#12 + 485 x(13)#13
      + 480 x(14)#14 + 619 x(15)#15 + 1069 x(16)#16 + 694 x(17)#17
      + 1116 x(18)#18 + 964 x(19)#19 + 810 x(20)#20 + 523 x(21)#21
      + 570 x(22)#22 + 457 x(23)#23 + 540 x(24)#24 + 718 x(25)#25
      + 776 x(26)#26 + 599 x(27)#27 + 967 x(28)#28 + 835 x(29)#29
      + 561 x(30)#30 + 973 x(31)#31 + 1006 x(32)#32 + 913 x(33)#33
      + 536 x(34)#34 + 754 x(35)#35 + 1032 x(36)#36 + 756 x(37)#37
      + 692 x(38)#38 + 830 x(39)#39 + 884 x(40)#40 + 830 x(41)#41
      + 872 x(42)#42 + 730 x(43)#43 + 418 x(44)#44 + 1042 x(45)#45
      + 585 x(46)#46 + 1058 x(47)#47 + 957 x(48)#48 + 331 x(49)#49
      + 935 x(50)#50 + 317 x(51)#51 + 755 x(52)#52 + 636 x(53)#53
      + 751 x(54)#54 + 812 x(55)#55 + 655 x(56)#56 + 590 x(57)#57
      + 858 x(58)#58 + 916 x(59)#59 + 554 x(60)#60 + 1062 x(61)#61
      + 861 x(62)#62 + 486 x(63)#63 + 742 x(64)#64 + 625 x(65)#65
      + 887 x(66)#66 + 883 x(67)#67 + 652 x(68)#68 + 960 x(69)#69
      + 811 x(70)#70 + 920 x(71)#71 + 456 x(72)#72 + 335 x(73)#73
      + 638 x(74)#74 + 799 x(75)#75 + 753 x(76)#76 + 511 x(77)#77
      + 1028 x(78)#78 + 590 x(79)#79 + 710 x(80)#80 + 1025 x(81)#81
      + 920 x(82)#82 + 524 x(83)#83 + 500 x(84)#84 + 873 x(85)#85
      + 932 x(86)#86 + 886 x(87)#87 + 819 x(88)#88 + 799 x(89)#89
      + 613 x(90)#90 + 637 x(91)#91 + 1050 x(92)#92 + 543 x(93)#93
      + 756 x(94)#94 + 565 x(95)#95 + 500 x(96)#96 + 659 x(97)#97
      + 472 x(98)#98 + 666 x(99)#99
Subject To
 c1: 898 x(0)#0 + 137 x(1)#1 + 865 x(2)#2 + 892 x(3)#3 + 976 x(4)#4
     + 857 x(5)#5 + 353 x(6)#6 + 15 x(7)#7 + 11 x(8)#8 + 215 x(9)#9
     + 98 x(10)#10 + 834 x(11)#11 + 43 x(12)#12 + 374 x(13)#13 + 17 x(14)#14
     + 371 x(15)#15 + 903 x(16)#16 + 227 x(17)#17 + 661 x(18)#18 + 296 x(19)#19
     + 519 x(20)#20 + 721 x(21)#21 + 111 x(22)#22 + 142 x(23)#23 + 513 x(24)#24
     + 328 x(25)#25 + 983 x(26)#26 + 89 x(27)#27 + 893 x(28)#28 + 733 x(29)#29
     + 933 x(30)#30 + 642 x(31)#31 + 519 x(32)#32 + 728 x(33)#33 + 138 x(34)#34
     + 92 x(35)#35 + 927 x(36)#36 + 489 x(37)#37 + 938 x(38)#38 + 781 x(39)#39
     + 730 x(40)#40 + 104 x(41)#41 + 618 x(42)#42 + 917 x(43)#43 + 7 x(44)#44
     + 405 x(45)#45 + 81 x(46)#46 + 560 x(47)#47 + 617 x(48)#48 + 214 x(49)#49
     + 696 x(50)#50 + 4 x(51)#51 + 455 x(52)#52 + 234 x(53)#53 + 209 x(54)#54
     + 465 x(55)#55 + 348 x(56)#56 + 520 x(57)#57 + 474 x(58)#58 + 931 x(59)#59
     + 383 x(60)#60 + 585 x(61)#61 + 54 x(62)#62 + 232 x(63)#63 + 827 x(64)#64
     + 69 x(65)#65 + 511 x(66)#66 + 945 x(67)#67 + 588 x(68)#68 + 961 x(69)#69
     + 53 x(70)#70 + 443 x(71)#71 + 534 x(72)#72 + 140 x(73)#73 + 60 x(74)#74
     + 692 x(75)#75 + 670 x(76)#76 + 236 x(77)#77 + 762 x(78)#78 + 940 x(79)#79
     + 677 x(80)#80 + 483 x(81)#81 + 668 x(82)#82 + 777 x(83)#83 + 575 x(84)#84
     + 120 x(85)#85 + 947 x(86)#86 + 296 x(87)#87 + 304 x(88)#88 + 543 x(89)#89
     + 210 x(90)#90 + 772 x(91)#91 + 761 x(92)#92 + 448 x(93)#93 + 804 x(94)#94
     + 432 x(95)#95 + 29 x(96)#96 + 424 x(97)#97 + 71 x(98)#98 + 892 x(99)#99
     <= 36577
 c2: 703 x(0)#0 + 58 x(1)#1 + 931 x(2)#2 + 130 x(3)#3 + 191 x(4)#4 + 4 x(5)#5
     + 65 x(6)#6 + 501 x(7)#7 + 240 x(8)#8 + 353 x(9)#9 + 211 x(10)#10
     + 598 x(11)#11 + 683 x(12)#12 + 241 x(13)#13 + 112 x(14)#14 + 439 x(15)#15
     + 593 x(16)#16 + 450 x(17)#17 + 740 x(18)#18 + 723 x(19)#19 + 387 x(20)#20
     + 245 x(21)#21 + 896 x(22)#22 + 28 x(23)#23 + 282 x(24)#24 + 785 x(25)#25
     + 975 x(26)#26 + 906 x(27)#27 + 350 x(28)#28 + 712 x(29)#29 + 268 x(30)#30
     + 908 x(31)#31 + 951 x(32)#32 + 908 x(33)#33 + 476 x(34)#34 + 656 x(35)#35
     + 716 x(36)#36 + 871 x(37)#37 + 631 x(38)#38 + 530 x(39)#39 + 326 x(40)#40
     + 660 x(41)#41 + 326 x(42)#42 + 543 x(43)#43 + 252 x(44)#44 + 497 x(45)#45
     + 619 x(46)#46 + 886 x(47)#47 + 389 x(48)#48 + 177 x(49)#49 + 747 x(50)#50
     + 291 x(51)#51 + 927 x(52)#52 + 436 x(53)#53 + 597 x(54)#54 + 347 x(55)#55
     + 907 x(56)#56 + 173 x(57)#57 + 567 x(58)#58 + 543 x(59)#59 + 333 x(60)#60
     + 959 x(61)#61 + 140 x(62)#62 + 576 x(63)#63 + 644 x(64)#64 + 286 x(65)#65
     + 104 x(66)#66 + 63 x(67)#67 + 677 x(68)#68 + 950 x(69)#69 + 351 x(70)#70
     + 730 x(71)#71 + 936 x(72)#72 + 175 x(73)#73 + 513 x(74)#74 + 5 x(75)#75
     + 87 x(76)#76 + 219 x(77)#77 + 679 x(78)#78 + 86 x(79)#79 + 474 x(80)#80
     + 901 x(81)#81 + 641 x(82)#82 + 231 x(83)#83 + 732 x(84)#84 + 954 x(85)#85
     + 199 x(86)#86 + 57 x(87)#87 + 227 x(88)#88 + 836 x(89)#89 + 324 x(90)#90
     + 149 x(91)#91 + 538 x(92)#92 + 378 x(93)#93 + 321 x(94)#94 + 250 x(95)#95
     + 30 x(96)#96 + 849 x(97)#97 + 207 x(98)#98 + 774 x(99)#99 <= 36182
 c3: 963 x(0)#0 + 713 x(1)#1 + 946 x(2)#2 + 429 x(3)#3 + 12 x(4)#4 + 560 x(5)#5
     + 317 x(6)#6 + 138 x(7)#7 + 373 x(8)#8 + 871 x(9)#9 + 834 x(10)#10
     + 80 x(11)#11 + 296 x(12)#12 + 102 x(13)#13 + 535 x(14)#14 + 999 x(15)#15
     + 929 x(16)#16 + 136 x(17)#17 + 951 x(18)#18 + 951 x(19)#19 + 770 x(20)#20
     + 109 x(21)#21 + 198 x(22)#22 + 758 x(23)#23 + 78 x(24)#24 + 220 x(25)#25
     + 569 x(26)#26 + 890 x(27)#27 + 759 x(28)#28 + 365 x(29)#29 + 153 x(30)#30
     + 205 x(31)#31 + 941 x(32)#32 + 360 x(33)#33 + 190 x(34)#34 + 491 x(35)#35
     + 669 x(36)#36 + 824 x(37)#37 + 99 x(38)#38 + 549 x(39)#39 + 381 x(40)#40
     + 252 x(41)#41 + 293 x(42)#42 + 747 x(43)#43 + 240 x(44)#44 + 835 x(45)#45
     + 515 x(46)#46 + 435 x(47)#47 + 735 x(48)#48 + 45 x(49)#49 + 461 x(50)#50
     + 964 x(51)#51 + 465 x(52)#52 + 978 x(53)#53 + 884 x(54)#54 + 553 x(55)#55
     + 616 x(56)#56 + 227 x(57)#57 + 470 x(58)#58 + 526 x(59)#59 + 644 x(60)#60
     + 250 x(61)#61 + 749 x(62)#62 + 460 x(63)#63 + 836 x(64)#64 + 122 x(65)#65
     + 524 x(66)#66 + 852 x(67)#67 + 648 x(68)#68 + 926 x(69)#69 + 889 x(70)#70
     + 302 x(71)#71 + 167 x(72)#72 + 587 x(73)#73 + 321 x(74)#74 + 735 x(75)#75
     + 553 x(76)#76 + 877 x(77)#77 + 182 x(78)#78 + 139 x(79)#79 + 308 x(80)#80
     + 82 x(81)#81 + 697 x(82)#82 + 800 x(83)#83 + 640 x(84)#84 + 536 x(85)#85
     + 520 x(86)#86 + 942 x(87)#87 + 833 x(88)#88 + 176 x(89)#89 + 502 x(90)#90
     + 496 x(91)#91 + 671 x(92)#92 + 335 x(93)#93 + 85 x(94)#94 + 99 x(95)#95
     + 583 x(96)#96 + 496 x(97)#97 + 908 x(98)#98 + 57 x(99)#99 <= 38612
 c4: 399 x(0)#0 + 635 x(1)#1 + 464 x(2)#2 + 149 x(3)#3 + 36 x(4)#4 + 900 x(5)#5
     + 772 x(6)#6 + 836 x(7)#7 + 188 x(8)#8 + 347 x(9)#9 + 808 x(10)#10
     + 864 x(11)#11 + 667 x(12)#12 + 71 x(13)#13 + 451 x(14)#14 + 307 x(15)#15
     + 326 x(16)#16 + 298 x(17)#17 + 289 x(18)#18 + 789 x(19)#19 + 424 x(20)#20
     + 338 x(21)#21 + 434 x(22)#22 + 206 x(23)#23 + 224 x(24)#24 + 29 x(25)#25
     + 456 x(26)#26 + 603 x(27)#27 + 975 x(28)#28 + 938 x(29)#29 + 734 x(30)#30
     + 417 x(31)#31 + 2 x(32)#32 + 671 x(33)#33 + 344 x(34)#34 + 298 x(35)#35
     + 612 x(36)#36 + 710 x(37)#37 + 399 x(38)#38 + 74 x(39)#39 + 728 x(40)#40
     + 711 x(41)#41 + 714 x(42)#42 + 352 x(43)#43 + 842 x(44)#44 + 403 x(45)#45
     + 643 x(46)#46 + 798 x(47)#47 + 955 x(48)#48 + 654 x(49)#49 + 510 x(50)#50
     + 111 x(51)#51 + 710 x(52)#52 + 482 x(53)#53 + 930 x(54)#54 + 906 x(55)#55
     + 621 x(56)#56 + 155 x(57)#57 + 597 x(58)#58 + 139 x(59)#59 + 587 x(60)#60
     + 239 x(61)#61 + 218 x(62)#62 + 852 x(63)#63 + 704 x(64)#64 + 561 x(65)#65
     + 257 x(66)#66 + 878 x(67)#67 + 70 x(68)#68 + 802 x(69)#69 + 10 x(70)#70
     + 386 x(71)#71 + 462 x(72)#72 + 382 x(73)#73 + 354 x(74)#74 + 733 x(75)#75
     + 417 x(76)#76 + 200 x(77)#77 + 785 x(78)#78 + 263 x(79)#79 + 592 x(80)#80
     + 573 x(81)#81 + 321 x(82)#82 + 682 x(83)#83 + 186 x(84)#84 + 640 x(85)#85
     + 246 x(86)#86 + 611 x(87)#87 + 353 x(88)#88 + 419 x(89)#89 + 526 x(90)#90
     + 867 x(91)#91 + 475 x(92)#92 + 616 x(93)#93 + 399 x(94)#94 + 586 x(95)#95
     + 457 x(96)#96 + 787 x(97)#97 + 139 x(98)#98 + 704 x(99)#99 <= 37338
 c5: 602 x(0)#0 + 456 x(1)#1 + 541 x(2)#2 + 474 x(3)#3 + 309 x(4)#4
     + 123 x(5)#5 + 233 x(6)#6 + 358 x(7)#7 + 760 x(8)#8 + 843 x(9)#9
     + 213 x(10)#10 + 696 x(11)#11 + 772 x(12)#12 + 742 x(13)#13 + 760 x(14)#14
     + 664 x(15)#15 + 740 x(16)#16 + 108 x(17)#17 + 998 x(18)#18 + 482 x(19)#19
     + 770 x(20)#20 + 403 x(21)#21 + 465 x(22)#22 + 99 x(23)#23 + 784 x(24)#24
     + 85 x(25)#25 + 679 x(26)#26 + 147 x(27)#27 + 310 x(28)#28 + 939 x(29)#29
     + 438 x(30)#30 + 352 x(31)#31 + 185 x(32)#32 + 983 x(33)#33 + 288 x(34)#34
     + 116 x(35)#35 + 125 x(36)#36 + 572 x(37)#37 + 63 x(38)#38 + 804 x(39)#39
     + 24 x(40)#40 + 215 x(41)#41 + 158 x(42)#42 + 928 x(43)#43 + 359 x(44)#44
     + 658 x(45)#45 + 381 x(46)#46 + 440 x(47)#47 + 741 x(48)#48 + 445 x(49)#49
     + 626 x(50)#50 + 213 x(51)#51 + 464 x(52)#52 + 571 x(53)#53 + 848 x(54)#54
     + 371 x(55)#55 + 209 x(56)#56 + 693 x(57)#57 + 353 x(58)#58 + 440 x(59)#59
     + 550 x(60)#60 + 953 x(61)#61 + 810 x(62)#62 + 14 x(63)#63 + 114 x(64)#64
     + 192 x(65)#65 + 603 x(66)#66 + 391 x(67)#67 + 399 x(68)#68 + 18 x(69)#69
     + 531 x(70)#70 + 565 x(71)#71 + 145 x(72)#72 + 226 x(73)#73 + 446 x(74)#74
     + 863 x(75)#75 + 994 x(76)#76 + 233 x(77)#77 + 710 x(78)#78 + 851 x(79)#79
     + 109 x(80)#80 + 708 x(81)#81 + 930 x(82)#82 + 38 x(83)#83 + 355 x(84)#84
     + 501 x(85)#85 + 617 x(86)#86 + 140 x(87)#87 + 695 x(88)#88 + 217 x(89)#89
     + 773 x(90)#90 + 368 x(91)#91 + 794 x(92)#92 + 718 x(93)#93 + 887 x(94)#94
     + 642 x(95)#95 + 701 x(96)#96 + 619 x(97)#97 + 502 x(98)#98 + 524 x(99)#99
     <= 36798
Bounds
 0 <= x(0)#0 <= 1
 0 <= x(1)#1 <= 1
 0 <= x(2)#2 <= 1
 0 <= x(3)#3 <= 1
 0 <= x(4)#4 <= 1
 0 <= x(5)#5 <= 1
 0 <= x(6)#6 <= 1
 0 <= x(7)#7 <= 1
 0 <= x(8)#8 <= 1
 0 <= x(9)#9 <= 1
 0 <= x(10)#10 <= 1
 0 <= x(11)#11 <= 1
 0 <= x(12)#12 <= 1
 0 <= x(13)#13 <= 1
 0 <= x(14)#14 <= 1
 0 <= x(15)#15 <= 1
 0 <= x(16)#16 <= 1
 0 <= x(17)#17 <= 1
 0 <= x(18)#18 <= 1
 0 <= x(19)#19 <= 1
 0 <= x(20)#20 <= 1
 0 <= x(21)#21 <= 1
 0 <= x(22)#22 <= 1
 0 <= x(23)#23 <= 1
 0 <= x(24)#24 <= 1
 0 <= x(25)#25 <= 1
 0 <= x(26)#26 <= 1
 0 <= x(27)#27 <= 1
 0 <= x(28)#28 <= 1
 0 <= x(29)#29 <= 1
 0 <= x(30)#30 <= 1
 0 <= x(31)#31 <= 1
 0 <= x(32)#32 <= 1
 0 <= x(33)#33 <= 1
 0 <= x(34)#34 <= 1
 0 <= x(35)#35 <= 1
 0 <= x(36)#36 <= 1
 0 <= x(37)#37 <= 1
 0 <= x(38)#38 <= 1
 0 <= x(39)#39 <= 1
 0 <= x(40)#40 <= 1
 0 <= x(41)#41 <= 1
 0 <= x(42)#42 <= 1
 0 <= x(43)#43 <= 1
 0 <= x(44)#44 <= 1
 0 <= x(45)#45 <= 1
 0 <= x(46)#46 <= 1
 0 <= x(47)#47 <= 1
 0 <= x(48)#48 <= 1
 0 <= x(49)#49 <= 1
 0 <= x(50)#50 <= 1
 0 <= x(51)#51 <= 1
 0 <= x(52)#52 <= 1
 0 <= x(53)#53 <= 1
 0 <= x(54)#54 <= 1
 0 <= x(55)#55 <= 1
 0 <= x(56)#56 <= 1
 0 <= x(57)#57 <= 1
 0 <= x(58)#58 <= 1
 0 <= x(59)#59 <= 1
 0 <= x(60)#60 <= 1
 0 <= x(61)#61 <= 1
 0 <= x(62)#62 <= 1
 0 <= x(63)#63 <= 1
 0 <= x(64)#64 <= 1
 0 <= x(65)#65 <= 1
 0 <= x(66)#66 <= 1
 0 <= x(67)#67 <= 1
 0 <= x(68)#68 <= 1
 0 <= x(69)#69 <= 1
 0 <= x(70)#70 <= 1
 0 <= x(71)#71 <= 1
 0 <= x(72)#72 <= 1
 0 <= x(73)#73 <= 1
 0 <= x(74)#74 <= 1
 0 <= x(75)#75 <= 1
 0 <= x(76)#76 <= 1
 0 <= x(77)#77 <= 1
 0 <= x(78)#78 <= 1
 0 <= x(79)#79 <= 1
 0 <= x(80)#80 <= 1
 0 <= x(81)#81 <= 1
 0 <= x(82)#82 <= 1
 0 <= x(83)#83 <= 1
 0 <= x(84)#84 <= 1
 0 <= x(85)#85 <= 1
 0 <= x(86)#86 <= 1
 0 <= x(87)#87 <= 1
 0 <= x(88)#88 <= 1
 0 <= x(89)#89 <= 1
 0 <= x(90)#90 <= 1
 0 <= x(91)#91 <= 1
 0 <= x(92)#92 <= 1
 0 <= x(93)#93 <= 1
 0 <= x(94)#94 <= 1
 0 <= x(95)#95 <= 1
 0 <= x(96)#96 <= 1
 0 <= x(97)#97 <= 1
 0 <= x(98)#98 <= 1
 0 <= x(99)#99 <= 1
Generals
 x(0)#0  x(1)#1  x(2)#2  x(3)#3  x(4)#4  x(5)#5  x(6)#6  x(7)#7  x(8)#8 
 x(9)#9  x(10)#10  x(11)#11  x(12)#12  x(13)#13  x(14)#14  x(15)#15  x(16)#16 
 x(17)#17  x(18)#18  x(19)#19  x(20)#20  x(21)#21  x(22)#22  x(23)#23 
 x(24)#24  x(25)#25  x(26)#26  x(27)#27  x(28)#28  x(29)#29  x(30)#30 
 x(31)#31  x(32)#32  x(33)#33  x(34)#34  x(35)#35  x(36)#36  x(37)#37 
 x(38)#38  x(39)#39  x(40)#40  x(41)#41  x(42)#42  x(43)#43  x(44)#44 
 x(45)#45  x(46)#46  x(47)#47  x(48)#48  x(49)#49  x(50)#50  x(51)#51 
 x(52)#52  x(53)#53  x(54)#54  x(55)#55  x(56)#56  x(57)#57  x(58)#58 
 x(59)#59  x(60)#60  x(61)#61  x(62)#62  x(63)#63  x(64)#64  x(65)#65 
 x(66)#66  x(67)#67  x(68)#68  x(69)#69  x(70)#70  x(71)#71  x(72)#72 
 x(73)#73  x(74)#74  x(75)#75  x(76)#76  x(77)#77  x(78)#78  x(79)#79 
 x(80)#80  x(81)#81  x(82)#82  x(83)#83  x(84)#84  x(85)#85  x(86)#86 
 x(87)#87  x(88)#88  x(89)#89  x(90)#90  x(91)#91  x(92)#92  x(93)#93 
 x(94)#94  x(95)#95  x(96)#96  x(97)#97  x(98)#98  x(99)#99 
End
